7
1 4
2 5
3 4
4 4
5 4
6 5
7 1
33
0 1 18
1 0 18
0 2 97
2 0 97
0 3 72
3 0 72
0 4 38
4 0 38
0 5 98
5 0 98
0 6 93
6 0 93
0 7 88
7 0 88
1 2 26
1 3 15
1 4 12
1 5 3
1 6 24
1 7 54
2 3 38
2 5 78
2 6 21
3 4 44
3 5 50
3 6 66
3 7 28
4 5 96
4 6 71
4 7 36
5 6 3
5 7 2
6 7 78
